! B3LYP def2-SVP Opt
* xyz 0 1
 O  0.00000000 0.00000000 0.11926200
 H  0.00000000 0.76323900 -0.47704700
 H  0.00000000 -0.76323900 -0.47704700
*
