#P

Gaussian input prepared by ASE

0 1
O                 0.0000000000        0.0000000000        0.1192620000
H                 0.0000000000        0.7632390000       -0.4770470000
H                 0.0000000000       -0.7632390000       -0.4770470000


