# written by ASE

%BLOCK LATTICE_CART
 0.000000  2.715000  2.715000
 2.715000  0.000000  2.715000
 2.715000  2.715000  0.000000
%ENDBLOCK LATTICE_CART

%BLOCK POSITIONS_ABS
Si  0.000000  0.000000  0.000000
Si  1.357500  1.357500  1.357500
%ENDBLOCK POSITIONS_ABS

