ATOMIC_SPECIES
Si 1.0 Si.upf

LATTICE_CONSTANT
1.8897259886

LATTICE_VECTORS
0.00000000 2.71500000 2.71500000
2.71500000 0.00000000 2.71500000
2.71500000 2.71500000 0.00000000

ATOMIC_POSITIONS
Direct

Si
0.0
2
0.00000000 0.00000000 0.00000000 1 1 1
0.25000000 0.25000000 0.25000000 1 1 1
