ATOMIC_SPECIES
O 1.0 O.upf
H 1.0 H.upf

LATTICE_CONSTANT
1.8897259886

LATTICE_VECTORS
4.00000000 0.00000000 0.00000000
1.20000000 3.60000000 0.00000000
0.80000000 0.50000000 5.10000000

ATOMIC_POSITIONS
Direct

O
0.0
1
0.10000000 0.20000000 0.30000000 1 1 1

H
0.0
2
0.40000000 0.50000000 0.60000000 1 1 1
0.70000000 0.80000000 0.15000000 1 1 1
