SystemName test
LatticeConstant 1.0 Ang
%block LatticeVectors
  4.0000000000 0.0000000000 0.0000000000
  1.2000000000 3.6000000000 0.0000000000
  0.8000000000 0.5000000000 5.1000000000
%endblock LatticeVectors
%block ChemicalSpeciesLabel
  1 8 O
  2 1 H
%endblock ChemicalSpeciesLabel
AtomicCoordinatesFormat Fractional
%block AtomicCoordinatesAndAtomicSpecies
  0.1000000000 0.2000000000 0.3000000000 1
  0.4000000000 0.5000000000 0.6000000000 2
  0.7000000000 0.8000000000 0.1500000000 2
%endblock AtomicCoordinatesAndAtomicSpecies
