&CONTROL
/
&SYSTEM
   ntyp             = 2
   nat              = 3
   ibrav            = 0
/
&ELECTRONS
/
&IONS
/
&CELL
/
&FCP
/
&RISM
/
ATOMIC_SPECIES
O 15.999 O.upf
H 1.008 H.upf

K_POINTS gamma

CELL_PARAMETERS angstrom
4.00000000000000 0.00000000000000 0.00000000000000
1.20000000000000 3.60000000000000 0.00000000000000
0.80000000000000 0.50000000000000 5.10000000000000

ATOMIC_POSITIONS angstrom
O 0.8800000000 0.8700000000 1.5300000000  
H 2.6800000000 2.1000000000 3.0600000000  
H 3.8800000000 2.9550000000 0.7650000000  

