# written by ASE

%BLOCK LATTICE_CART
 4.000000  0.000000  0.000000
 1.200000  3.600000  0.000000
 0.800000  0.500000  5.100000
%ENDBLOCK LATTICE_CART

%BLOCK POSITIONS_ABS
O  0.880000  0.870000  1.530000
H  2.680000  2.100000  3.060000
H  3.880000  2.955000  0.765000
%ENDBLOCK POSITIONS_ABS

